# Solution for model dripping_srl_ilp
# Objective value = 3.8675440983002676e+00
Z_538_5_0 0
Z_538_5_1 0
Z_538_5_2 0
Z_538_5_3 0
Z_538_5_4 1
Z_538_0_0 0
Z_538_0_1 0
Z_538_0_2 0
Z_538_0_3 0
Z_538_0_4 1
Z_538_3_0 0
Z_538_3_1 0
Z_538_3_2 0
Z_538_3_3 0
Z_538_3_4 1
Z_538_1_0 0
Z_538_1_1 0
Z_538_1_2 0
Z_538_1_3 0
Z_538_1_4 1
Z_538_6_0 0
Z_538_6_1 0
Z_538_6_2 0
Z_538_6_3 0
Z_538_6_4 1
Z_538_2_0 0
Z_538_2_1 0
Z_538_2_2 1
Z_538_2_3 0
Z_538_2_4 0
